(set-info :smt-lib-version 2.6)
(set-logic QF_LRA)
(set-info :source |
TLP-GP automated DTP to SMT-LIB encoding for planning
by F.Maris and P.Regnier, IRIT - Universite Paul Sabatier, Toulouse

|)
(set-info :category "industrial")
(set-info :status sat)
(declare-fun St_spy_variable () Real)
(declare-fun t_Init_0 () Real)
(declare-fun t_Goal_6 () Real)
(declare-fun t_BAKE_CERAMIC2_p2_k2_2 () Real)
(declare-fun t_TREAT_CERAMIC2_p2_3 () Real)
(declare-fun t_BAKE_CERAMIC2_p2_k2_3 () Real)
(declare-fun t_BAKE_CERAMIC1_p1_k2_2 () Real)
(declare-fun t_TREAT_CERAMIC1_p1_3 () Real)
(declare-fun t_FIRE_KILN2_k2_2 () Real)
(declare-fun t_BAKE_CERAMIC1_p1_k2_3 () Real)
(declare-fun t_MAKE_STRUCTURE_p1_p2_4 () Real)
(declare-fun t_BAKE_STRUCTURE_p1_p2_k1_5 () Real)
(declare-fun t_BAKE_CERAMIC2_p4_k2_2 () Real)
(declare-fun t_TREAT_CERAMIC2_p4_3 () Real)
(declare-fun t_BAKE_CERAMIC2_p4_k2_3 () Real)
(declare-fun t_BAKE_CERAMIC2_p3_k2_2 () Real)
(declare-fun t_TREAT_CERAMIC2_p3_3 () Real)
(declare-fun t_BAKE_CERAMIC2_p3_k2_3 () Real)
(declare-fun t_MAKE_STRUCTURE_p3_p4_4 () Real)
(declare-fun t_BAKE_STRUCTURE_p3_p4_k1_5 () Real)
(declare-fun t_BAKE_CERAMIC3_p6_k2_2 () Real)
(declare-fun t_TREAT_CERAMIC3_p6_3 () Real)
(declare-fun t_BAKE_CERAMIC3_p6_k1_3 () Real)
(declare-fun t_BAKE_CERAMIC3_p5_k2_2 () Real)
(declare-fun t_TREAT_CERAMIC3_p5_3 () Real)
(declare-fun t_BAKE_CERAMIC3_p5_k1_3 () Real)
(declare-fun t_MAKE_STRUCTURE_p5_p6_4 () Real)
(declare-fun t_BAKE_STRUCTURE_p5_p6_k1_5 () Real)
(declare-fun t_BAKE_CERAMIC3_p8_k2_2 () Real)
(declare-fun t_TREAT_CERAMIC3_p8_3 () Real)
(declare-fun t_BAKE_CERAMIC3_p8_k1_3 () Real)
(declare-fun t_FIRE_KILN2_k2_1 () Real)
(declare-fun t_BAKE_CERAMIC3_p7_k2_2 () Real)
(declare-fun t_TREAT_CERAMIC3_p7_3 () Real)
(declare-fun t_FIRE_KILN1_k1_2 () Real)
(declare-fun t_BAKE_CERAMIC3_p7_k1_3 () Real)
(declare-fun t_MAKE_STRUCTURE_p7_p8_4 () Real)
(declare-fun t_FIRE_KILN1_k1_1 () Real)
(declare-fun t_BAKE_STRUCTURE_p7_p8_k1_5 () Real)
(assert (let ((?v_17 (- t_Goal_6 t_BAKE_STRUCTURE_p1_p2_k1_5)) (?v_28 (- t_Goal_6 t_BAKE_STRUCTURE_p3_p4_k1_5)) (?v_39 (- t_Goal_6 t_BAKE_STRUCTURE_p5_p6_k1_5)) (?v_47 (- t_Goal_6 t_BAKE_STRUCTURE_p7_p8_k1_5)) (?v_43 (- t_BAKE_CERAMIC3_p7_k2_2 t_FIRE_KILN2_k2_1))) (let ((?v_2 (<= ?v_43 15)) (?v_40 (- t_BAKE_CERAMIC3_p8_k2_2 t_FIRE_KILN2_k2_1))) (let ((?v_3 (<= ?v_40 15)) (?v_32 (- t_BAKE_CERAMIC3_p5_k2_2 t_FIRE_KILN2_k2_1))) (let ((?v_4 (<= ?v_32 15)) (?v_29 (- t_BAKE_CERAMIC3_p6_k2_2 t_FIRE_KILN2_k2_1))) (let ((?v_5 (<= ?v_29 15)) (?v_23 (- t_BAKE_CERAMIC2_p3_k2_3 t_FIRE_KILN2_k2_1))) (let ((?v_6 (<= ?v_23 10)) (?v_21 (- t_BAKE_CERAMIC2_p3_k2_2 t_FIRE_KILN2_k2_1))) (let ((?v_7 (<= ?v_21 10)) (?v_20 (- t_BAKE_CERAMIC2_p4_k2_3 t_FIRE_KILN2_k2_1))) (let ((?v_8 (<= ?v_20 10)) (?v_18 (- t_BAKE_CERAMIC2_p4_k2_2 t_FIRE_KILN2_k2_1))) (let ((?v_9 (<= ?v_18 10)) (?v_13 (- t_BAKE_CERAMIC1_p1_k2_2 t_FIRE_KILN2_k2_1))) (let ((?v_10 (<= ?v_13 5)) (?v_12 (- t_BAKE_CERAMIC2_p2_k2_3 t_FIRE_KILN2_k2_1))) (let ((?v_11 (<= ?v_12 10)) (?v_0 (- t_BAKE_CERAMIC2_p2_k2_2 t_FIRE_KILN2_k2_1)) (?v_1 (- t_TREAT_CERAMIC2_p2_3 t_BAKE_CERAMIC2_p2_k2_2)) (?v_14 (- t_TREAT_CERAMIC1_p1_3 t_BAKE_CERAMIC1_p1_k2_2)) (?v_15 (- t_BAKE_CERAMIC1_p1_k2_3 t_FIRE_KILN2_k2_2)) (?v_46 (- t_BAKE_STRUCTURE_p7_p8_k1_5 t_FIRE_KILN1_k1_1))) (let ((?v_24 (<= ?v_46 5)) (?v_38 (- t_BAKE_STRUCTURE_p5_p6_k1_5 t_FIRE_KILN1_k1_1))) (let ((?v_25 (<= ?v_38 5)) (?v_27 (- t_BAKE_STRUCTURE_p3_p4_k1_5 t_FIRE_KILN1_k1_1))) (let ((?v_26 (<= ?v_27 5)) (?v_16 (- t_BAKE_STRUCTURE_p1_p2_k1_5 t_FIRE_KILN1_k1_1)) (?v_19 (- t_TREAT_CERAMIC2_p4_3 t_BAKE_CERAMIC2_p4_k2_2)) (?v_22 (- t_TREAT_CERAMIC2_p3_3 t_BAKE_CERAMIC2_p3_k2_2)) (?v_30 (- t_TREAT_CERAMIC3_p6_3 t_BAKE_CERAMIC3_p6_k2_2)) (?v_45 (- t_BAKE_CERAMIC3_p7_k1_3 t_FIRE_KILN1_k1_2))) (let ((?v_34 (<= ?v_45 3)) (?v_42 (- t_BAKE_CERAMIC3_p8_k1_3 t_FIRE_KILN1_k1_2))) (let ((?v_35 (<= ?v_42 3)) (?v_37 (- t_BAKE_CERAMIC3_p5_k1_3 t_FIRE_KILN1_k1_2))) (let ((?v_36 (<= ?v_37 3)) (?v_31 (- t_BAKE_CERAMIC3_p6_k1_3 t_FIRE_KILN1_k1_2)) (?v_33 (- t_TREAT_CERAMIC3_p5_3 t_BAKE_CERAMIC3_p5_k2_2)) (?v_41 (- t_TREAT_CERAMIC3_p8_3 t_BAKE_CERAMIC3_p8_k2_2)) (?v_44 (- t_TREAT_CERAMIC3_p7_3 t_BAKE_CERAMIC3_p7_k2_2)) (?v_55 (- t_BAKE_CERAMIC1_p1_k2_3 t_FIRE_KILN2_k2_1)) (?v_54 (> (- t_FIRE_KILN2_k2_2 t_FIRE_KILN2_k2_1) 20))) (let ((?v_50 (or (<= ?v_55 5) ?v_54)) (?v_51 (> (- t_FIRE_KILN2_k2_1 t_FIRE_KILN2_k2_2) 20)) (?v_49 (- t_BAKE_CERAMIC2_p2_k2_2 t_BAKE_CERAMIC2_p2_k2_3)) (?v_48 (- t_BAKE_CERAMIC2_p2_k2_3 t_BAKE_CERAMIC2_p2_k2_2)) (?v_53 (- t_BAKE_CERAMIC1_p1_k2_2 t_BAKE_CERAMIC1_p1_k2_3)) (?v_52 (- t_BAKE_CERAMIC1_p1_k2_3 t_BAKE_CERAMIC1_p1_k2_2)) (?v_80 (- t_BAKE_CERAMIC3_p7_k1_3 t_FIRE_KILN1_k1_1)) (?v_56 (> (- t_FIRE_KILN1_k1_2 t_FIRE_KILN1_k1_1) 8))) (let ((?v_61 (or (<= ?v_80 3) ?v_56)) (?v_77 (- t_BAKE_CERAMIC3_p8_k1_3 t_FIRE_KILN1_k1_1))) (let ((?v_62 (or (<= ?v_77 3) ?v_56)) (?v_73 (- t_BAKE_CERAMIC3_p5_k1_3 t_FIRE_KILN1_k1_1))) (let ((?v_63 (or (<= ?v_73 3) ?v_56)) (?v_68 (- t_BAKE_CERAMIC3_p6_k1_3 t_FIRE_KILN1_k1_1))) (let ((?v_64 (or (<= ?v_68 3) ?v_56)) (?v_65 (> (- t_FIRE_KILN1_k1_1 t_FIRE_KILN1_k1_2) 8)) (?v_58 (- t_BAKE_CERAMIC2_p4_k2_2 t_BAKE_CERAMIC2_p4_k2_3)) (?v_57 (- t_BAKE_CERAMIC2_p4_k2_3 t_BAKE_CERAMIC2_p4_k2_2)) (?v_60 (- t_BAKE_CERAMIC2_p3_k2_2 t_BAKE_CERAMIC2_p3_k2_3)) (?v_59 (- t_BAKE_CERAMIC2_p3_k2_3 t_BAKE_CERAMIC2_p3_k2_2)) (?v_67 (- t_BAKE_CERAMIC3_p6_k2_2 t_BAKE_CERAMIC3_p6_k1_3)) (?v_66 (- t_BAKE_CERAMIC3_p6_k1_3 t_BAKE_CERAMIC3_p6_k2_2))) (let ((?v_71 (or (<= (- t_BAKE_STRUCTURE_p7_p8_k1_5 t_FIRE_KILN1_k1_2) 5) ?v_65)) (?v_74 (- t_BAKE_STRUCTURE_p5_p6_k1_5 t_FIRE_KILN1_k1_2))) (let ((?v_72 (or (<= ?v_74 5) ?v_65)) (?v_70 (- t_BAKE_CERAMIC3_p5_k2_2 t_BAKE_CERAMIC3_p5_k1_3)) (?v_69 (- t_BAKE_CERAMIC3_p5_k1_3 t_BAKE_CERAMIC3_p5_k2_2)) (?v_76 (- t_BAKE_CERAMIC3_p8_k2_2 t_BAKE_CERAMIC3_p8_k1_3)) (?v_75 (- t_BAKE_CERAMIC3_p8_k1_3 t_BAKE_CERAMIC3_p8_k2_2)) (?v_79 (- t_BAKE_CERAMIC3_p7_k2_2 t_BAKE_CERAMIC3_p7_k1_3)) (?v_78 (- t_BAKE_CERAMIC3_p7_k1_3 t_BAKE_CERAMIC3_p7_k2_2))) (and (= St_spy_variable (+ 1 t_Init_0)) (>= t_Goal_6 t_Init_0) (>= (- t_BAKE_CERAMIC2_p2_k2_2 t_Init_0) 0) (>= (- t_Goal_6 t_BAKE_CERAMIC2_p2_k2_2) 10) (>= (- t_TREAT_CERAMIC2_p2_3 t_Init_0) 0) (>= (- t_Goal_6 t_TREAT_CERAMIC2_p2_3) 2) (>= (- t_BAKE_CERAMIC2_p2_k2_3 t_Init_0) 0) (>= (- t_Goal_6 t_BAKE_CERAMIC2_p2_k2_3) 10) (>= (- t_BAKE_CERAMIC1_p1_k2_2 t_Init_0) 0) (>= (- t_Goal_6 t_BAKE_CERAMIC1_p1_k2_2) 15) (>= (- t_TREAT_CERAMIC1_p1_3 t_Init_0) 0) (>= (- t_Goal_6 t_TREAT_CERAMIC1_p1_3) 3) (>= (- t_FIRE_KILN2_k2_2 t_Init_0) 0) (>= (- t_Goal_6 t_FIRE_KILN2_k2_2) 20) (>= (- t_BAKE_CERAMIC1_p1_k2_3 t_Init_0) 0) (>= (- t_Goal_6 t_BAKE_CERAMIC1_p1_k2_3) 15) (>= (- t_MAKE_STRUCTURE_p1_p2_4 t_Init_0) 0) (>= (- t_Goal_6 t_MAKE_STRUCTURE_p1_p2_4) 1) (>= (- t_BAKE_STRUCTURE_p1_p2_k1_5 t_Init_0) 0) (>= ?v_17 3) (>= (- t_BAKE_CERAMIC2_p4_k2_2 t_Init_0) 0) (>= (- t_Goal_6 t_BAKE_CERAMIC2_p4_k2_2) 10) (>= (- t_TREAT_CERAMIC2_p4_3 t_Init_0) 0) (>= (- t_Goal_6 t_TREAT_CERAMIC2_p4_3) 2) (>= (- t_BAKE_CERAMIC2_p4_k2_3 t_Init_0) 0) (>= (- t_Goal_6 t_BAKE_CERAMIC2_p4_k2_3) 10) (>= (- t_BAKE_CERAMIC2_p3_k2_2 t_Init_0) 0) (>= (- t_Goal_6 t_BAKE_CERAMIC2_p3_k2_2) 10) (>= (- t_TREAT_CERAMIC2_p3_3 t_Init_0) 0) (>= (- t_Goal_6 t_TREAT_CERAMIC2_p3_3) 2) (>= (- t_BAKE_CERAMIC2_p3_k2_3 t_Init_0) 0) (>= (- t_Goal_6 t_BAKE_CERAMIC2_p3_k2_3) 10) (>= (- t_MAKE_STRUCTURE_p3_p4_4 t_Init_0) 0) (>= (- t_Goal_6 t_MAKE_STRUCTURE_p3_p4_4) 1) (>= (- t_BAKE_STRUCTURE_p3_p4_k1_5 t_Init_0) 0) (>= ?v_28 3) (>= (- t_BAKE_CERAMIC3_p6_k2_2 t_Init_0) 0) (>= (- t_Goal_6 t_BAKE_CERAMIC3_p6_k2_2) 5) (>= (- t_TREAT_CERAMIC3_p6_3 t_Init_0) 0) (>= (- t_Goal_6 t_TREAT_CERAMIC3_p6_3) 1) (>= (- t_BAKE_CERAMIC3_p6_k1_3 t_Init_0) 0) (>= (- t_Goal_6 t_BAKE_CERAMIC3_p6_k1_3) 5) (>= (- t_BAKE_CERAMIC3_p5_k2_2 t_Init_0) 0) (>= (- t_Goal_6 t_BAKE_CERAMIC3_p5_k2_2) 5) (>= (- t_TREAT_CERAMIC3_p5_3 t_Init_0) 0) (>= (- t_Goal_6 t_TREAT_CERAMIC3_p5_3) 1) (>= (- t_BAKE_CERAMIC3_p5_k1_3 t_Init_0) 0) (>= (- t_Goal_6 t_BAKE_CERAMIC3_p5_k1_3) 5) (>= (- t_MAKE_STRUCTURE_p5_p6_4 t_Init_0) 0) (>= (- t_Goal_6 t_MAKE_STRUCTURE_p5_p6_4) 1) (>= (- t_BAKE_STRUCTURE_p5_p6_k1_5 t_Init_0) 0) (>= ?v_39 3) (>= (- t_BAKE_CERAMIC3_p8_k2_2 t_Init_0) 0) (>= (- t_Goal_6 t_BAKE_CERAMIC3_p8_k2_2) 5) (>= (- t_TREAT_CERAMIC3_p8_3 t_Init_0) 0) (>= (- t_Goal_6 t_TREAT_CERAMIC3_p8_3) 1) (>= (- t_BAKE_CERAMIC3_p8_k1_3 t_Init_0) 0) (>= (- t_Goal_6 t_BAKE_CERAMIC3_p8_k1_3) 5) (>= (- t_FIRE_KILN2_k2_1 t_Init_0) 0) (>= (- t_Goal_6 t_FIRE_KILN2_k2_1) 20) (>= (- t_BAKE_CERAMIC3_p7_k2_2 t_Init_0) 0) (>= (- t_Goal_6 t_BAKE_CERAMIC3_p7_k2_2) 5) (>= (- t_TREAT_CERAMIC3_p7_3 t_Init_0) 0) (>= (- t_Goal_6 t_TREAT_CERAMIC3_p7_3) 1) (>= (- t_FIRE_KILN1_k1_2 t_Init_0) 0) (>= (- t_Goal_6 t_FIRE_KILN1_k1_2) 8) (>= (- t_BAKE_CERAMIC3_p7_k1_3 t_Init_0) 0) (>= (- t_Goal_6 t_BAKE_CERAMIC3_p7_k1_3) 5) (>= (- t_MAKE_STRUCTURE_p7_p8_4 t_Init_0) 0) (>= (- t_Goal_6 t_MAKE_STRUCTURE_p7_p8_4) 1) (>= (- t_FIRE_KILN1_k1_1 t_Init_0) 0) (>= (- t_Goal_6 t_FIRE_KILN1_k1_1) 8) (>= (- t_BAKE_STRUCTURE_p7_p8_k1_5 t_Init_0) 0) (>= ?v_47 3) ?v_2 ?v_3 ?v_4 ?v_5 ?v_6 ?v_7 ?v_8 ?v_9 ?v_10 ?v_11 (<= ?v_0 10) (< ?v_0 10) (>= ?v_0 2) (<= ?v_1 8) (>= ?v_1 0) (>= (- t_MAKE_STRUCTURE_p1_p2_4 t_TREAT_CERAMIC2_p2_3) 2) ?v_2 ?v_3 ?v_4 ?v_5 ?v_6 ?v_7 ?v_8 ?v_9 ?v_10 ?v_11 (< ?v_12 10) (>= ?v_12 2) (>= (- t_MAKE_STRUCTURE_p1_p2_4 t_BAKE_CERAMIC2_p2_k2_3) 10) ?v_2 ?v_3 ?v_4 ?v_5 ?v_6 ?v_7 ?v_8 ?v_9 ?v_10 (< ?v_13 5) (>= ?v_13 2) (<= ?v_14 12) (>= ?v_14 0) (>= (- t_MAKE_STRUCTURE_p1_p2_4 t_TREAT_CERAMIC1_p1_3) 3) (<= ?v_15 5) (>= ?v_15 2) (>= (- t_MAKE_STRUCTURE_p1_p2_4 t_BAKE_CERAMIC1_p1_k2_3) 15) (>= (- t_BAKE_STRUCTURE_p1_p2_k1_5 t_MAKE_STRUCTURE_p1_p2_4) 1) ?v_24 ?v_25 ?v_26 (<= ?v_16 5) (< ?v_16 5) (>= ?v_16 1) (>= ?v_17 4) ?v_2 ?v_3 ?v_4 ?v_5 ?v_6 ?v_7 ?v_8 ?v_9 (< ?v_18 10) (>= ?v_18 2) (<= ?v_19 8) (>= ?v_19 0) (>= (- t_MAKE_STRUCTURE_p3_p4_4 t_TREAT_CERAMIC2_p4_3) 2) ?v_2 ?v_3 ?v_4 ?v_5 ?v_6 ?v_7 ?v_8 (< ?v_20 10) (>= ?v_20 2) (>= (- t_MAKE_STRUCTURE_p3_p4_4 t_BAKE_CERAMIC2_p4_k2_3) 10) ?v_2 ?v_3 ?v_4 ?v_5 ?v_6 ?v_7 (< ?v_21 10) (>= ?v_21 2) (<= ?v_22 8) (>= ?v_22 0) (>= (- t_MAKE_STRUCTURE_p3_p4_4 t_TREAT_CERAMIC2_p3_3) 2) ?v_2 ?v_3 ?v_4 ?v_5 ?v_6 (< ?v_23 10) (>= ?v_23 2) (>= (- t_MAKE_STRUCTURE_p3_p4_4 t_BAKE_CERAMIC2_p3_k2_3) 10) (>= (- t_BAKE_STRUCTURE_p3_p4_k1_5 t_MAKE_STRUCTURE_p3_p4_4) 1) ?v_24 ?v_25 ?v_26 (< ?v_27 5) (>= ?v_27 1) (>= ?v_28 4) ?v_2 ?v_3 ?v_4 ?v_5 (< ?v_29 15) (>= ?v_29 2) (<= ?v_30 4) (>= ?v_30 0) (>= (- t_MAKE_STRUCTURE_p5_p6_4 t_TREAT_CERAMIC3_p6_3) 1) ?v_34 ?v_35 ?v_36 (<= ?v_31 3) (< ?v_31 3) (>= ?v_31 1) (>= (- t_MAKE_STRUCTURE_p5_p6_4 t_BAKE_CERAMIC3_p6_k1_3) 5) ?v_2 ?v_3 ?v_4 (< ?v_32 15) (>= ?v_32 2) (<= ?v_33 4) (>= ?v_33 0) (>= (- t_MAKE_STRUCTURE_p5_p6_4 t_TREAT_CERAMIC3_p5_3) 1) ?v_34 ?v_35 ?v_36 (< ?v_37 3) (>= ?v_37 1) (>= (- t_MAKE_STRUCTURE_p5_p6_4 t_BAKE_CERAMIC3_p5_k1_3) 5) (>= (- t_BAKE_STRUCTURE_p5_p6_k1_5 t_MAKE_STRUCTURE_p5_p6_4) 1) ?v_24 ?v_25 (< ?v_38 5) (>= ?v_38 1) (>= ?v_39 4) ?v_2 ?v_3 (< ?v_40 15) (>= ?v_40 2) (<= ?v_41 4) (>= ?v_41 0) (>= (- t_MAKE_STRUCTURE_p7_p8_4 t_TREAT_CERAMIC3_p8_3) 1) ?v_34 ?v_35 (< ?v_42 3) (>= ?v_42 1) (>= (- t_MAKE_STRUCTURE_p7_p8_4 t_BAKE_CERAMIC3_p8_k1_3) 5) ?v_2 (>= ?v_43 2) (<= ?v_44 4) (>= ?v_44 0) (>= (- t_MAKE_STRUCTURE_p7_p8_4 t_TREAT_CERAMIC3_p7_3) 1) ?v_34 (>= ?v_45 1) (>= (- t_MAKE_STRUCTURE_p7_p8_4 t_BAKE_CERAMIC3_p7_k1_3) 5) (>= (- t_BAKE_STRUCTURE_p7_p8_k1_5 t_MAKE_STRUCTURE_p7_p8_4) 1) ?v_24 (>= ?v_46 1) (>= ?v_47 4) ?v_50 (or ?v_51 (< (- t_BAKE_CERAMIC2_p2_k2_2 t_FIRE_KILN2_k2_2) 10)) (or (>= (- t_BAKE_CERAMIC2_p2_k2_2 t_MAKE_STRUCTURE_p1_p2_4) 1) (< ?v_49 7)) (or (<= ?v_48 0) (> ?v_48 10)) (or (>= ?v_49 3) (> ?v_48 7)) (or (> ?v_49 10) (< (- t_TREAT_CERAMIC2_p2_3 t_BAKE_CERAMIC2_p2_k2_3) 8)) ?v_50 (or ?v_51 (< (- t_BAKE_CERAMIC2_p2_k2_3 t_FIRE_KILN2_k2_2) 10)) ?v_50 (or ?v_51 (< (- t_BAKE_CERAMIC1_p1_k2_2 t_FIRE_KILN2_k2_2) 5)) (or (>= (- t_BAKE_CERAMIC1_p1_k2_2 t_MAKE_STRUCTURE_p1_p2_4) 1) (< ?v_53 10)) (or (<= ?v_52 0) (> ?v_52 15)) (or (>= ?v_53 5) (> ?v_52 10)) (or (> ?v_53 15) (< (- t_TREAT_CERAMIC1_p1_3 t_BAKE_CERAMIC1_p1_k2_3) 12)) (or (<= (- t_BAKE_CERAMIC3_p7_k2_2 t_FIRE_KILN2_k2_2) 15) ?v_51) (or (<= (- t_BAKE_CERAMIC3_p8_k2_2 t_FIRE_KILN2_k2_2) 15) ?v_51) (or (<= (- t_BAKE_CERAMIC3_p5_k2_2 t_FIRE_KILN2_k2_2) 15) ?v_51) (or (<= (- t_BAKE_CERAMIC3_p6_k2_2 t_FIRE_KILN2_k2_2) 15) ?v_51) (or (<= (- t_BAKE_CERAMIC2_p3_k2_3 t_FIRE_KILN2_k2_2) 10) ?v_51) (or (<= (- t_BAKE_CERAMIC2_p3_k2_2 t_FIRE_KILN2_k2_2) 10) ?v_51) (or (<= (- t_BAKE_CERAMIC2_p4_k2_3 t_FIRE_KILN2_k2_2) 10) ?v_51) (or (<= (- t_BAKE_CERAMIC2_p4_k2_2 t_FIRE_KILN2_k2_2) 10) ?v_51) (or ?v_54 (< ?v_55 5)) ?v_61 ?v_62 ?v_63 ?v_64 (or ?v_65 (< (- t_BAKE_STRUCTURE_p1_p2_k1_5 t_FIRE_KILN1_k1_2) 5)) (or (>= (- t_BAKE_CERAMIC2_p4_k2_2 t_MAKE_STRUCTURE_p3_p4_4) 1) (< ?v_58 7)) (or (<= ?v_57 0) (> ?v_57 10)) (or (>= ?v_58 3) (> ?v_57 7)) (or (> ?v_58 10) (< (- t_TREAT_CERAMIC2_p4_3 t_BAKE_CERAMIC2_p4_k2_3) 8)) (or (>= (- t_BAKE_CERAMIC2_p3_k2_2 t_MAKE_STRUCTURE_p3_p4_4) 1) (< ?v_60 7)) (or (<= ?v_59 0) (> ?v_59 10)) (or (>= ?v_60 3) (> ?v_59 7)) (or (> ?v_60 10) (< (- t_TREAT_CERAMIC2_p3_3 t_BAKE_CERAMIC2_p3_k2_3) 8)) ?v_61 ?v_62 ?v_63 ?v_64 (or ?v_65 (< (- t_BAKE_STRUCTURE_p3_p4_k1_5 t_FIRE_KILN1_k1_2) 5)) (or (>= (- t_BAKE_CERAMIC3_p6_k2_2 t_MAKE_STRUCTURE_p5_p6_4) 1) (< ?v_67 4)) (or (<= ?v_66 0) (> ?v_66 5)) (or (>= ?v_67 1) (> ?v_66 4)) (or (> ?v_67 5) (< (- t_TREAT_CERAMIC3_p6_3 t_BAKE_CERAMIC3_p6_k1_3) 4)) ?v_71 ?v_72 (or ?v_56 (< ?v_68 3)) (or (>= (- t_BAKE_CERAMIC3_p5_k2_2 t_MAKE_STRUCTURE_p5_p6_4) 1) (< ?v_70 4)) (or (<= ?v_69 0) (> ?v_69 5)) (or (>= ?v_70 1) (> ?v_69 4)) (or (> ?v_70 5) (< (- t_TREAT_CERAMIC3_p5_3 t_BAKE_CERAMIC3_p5_k1_3) 4)) ?v_71 ?v_72 (or ?v_56 (< ?v_73 3)) ?v_61 ?v_62 (or ?v_65 (< ?v_74 5)) (or (>= (- t_BAKE_CERAMIC3_p8_k2_2 t_MAKE_STRUCTURE_p7_p8_4) 1) (< ?v_76 4)) (or (<= ?v_75 0) (> ?v_75 5)) (or (>= ?v_76 1) (> ?v_75 4)) (or (> ?v_76 5) (< (- t_TREAT_CERAMIC3_p8_3 t_BAKE_CERAMIC3_p8_k1_3) 4)) ?v_71 (or ?v_56 (< ?v_77 3)) (or (>= (- t_BAKE_CERAMIC3_p7_k2_2 t_MAKE_STRUCTURE_p7_p8_4) 1) (< ?v_79 4)) (or (<= ?v_78 0) (> ?v_78 5)) (or (>= ?v_79 1) (> ?v_78 4)) (or (> ?v_79 5) (< (- t_TREAT_CERAMIC3_p7_3 t_BAKE_CERAMIC3_p7_k1_3) 4)) ?v_71 (or ?v_56 (< ?v_80 3))))))))))))))))))))))))))))
(check-sat)
(exit)
